Minimize

121.066 y_0_1 + 92.85 y_0_2 + 140.543 y_0_3 + 159.947 y_0_5 + 121.066 y_1_0 + 150.0 y_1_2 + 104.211 y_1_9 + 92.85 y_2_0 + 150.0 y_2_1 + 140.543 y_3_0 + 123.415 y_3_5 + 207.838 y_3_7 + 108.12 y_3_8 + 51.523 y_4_5 + 201.029 y_4_6 + 138.0 y_4_9 + 159.947 y_5_0 + 123.415 y_5_3 + 51.523 y_5_4 + 260.415 y_5_6 + 97.306 y_5_7 + 201.029 y_6_4 + 260.415 y_6_5 + 167.624 y_6_7 + 207.838 y_7_3 + 97.306 y_7_5 + 167.624 y_7_6 + 93.161 y_7_8 + 108.12 y_8_3 + 93.161 y_8_7 + 104.211 y_9_1 + 138.0 y_9_4


Subject To

a0: y_0_1 + y_0_2 + y_0_3 + y_0_5 = 1
b0: y_1_0 + y_2_0 + y_3_0 + y_5_0 = 0
c0: y_4_6 + y_5_6 + y_7_6 = 1
d0: y_6_4 + y_6_5 + y_6_7 = 0
e0: y_0_1 + y_2_1 + y_9_1 - y_1_0 - y_1_2 - y_1_9 = 0
e1: y_0_2 + y_1_2 - y_2_0 - y_2_1 = 0
e2: y_0_3 + y_5_3 + y_7_3 + y_8_3 - y_3_0 - y_3_5 - y_3_7 - y_3_8 = 0
e3: y_5_4 + y_6_4 + y_9_4 - y_4_5 - y_4_6 - y_4_9 = 0
e4: y_0_5 + y_3_5 + y_4_5 + y_6_5 + y_7_5 - y_5_0 - y_5_3 - y_5_4 - y_5_6 - y_5_7 = 0
e5: y_3_7 + y_5_7 + y_6_7 + y_8_7 - y_7_3 - y_7_5 - y_7_6 - y_7_8 = 0
e6: y_3_8 + y_7_8 - y_8_3 - y_8_7 = 0
e7: y_1_9 + y_4_9 - y_9_1 - y_9_4 = 0
f0: x_0 - x_1 + 10 y_0_1 <= 9
f1: x_0 - x_2 + 10 y_0_2 <= 9
f2: x_0 - x_3 + 10 y_0_3 <= 9
f3: x_0 - x_5 + 10 y_0_5 <= 9
f4: x_1 - x_0 + 10 y_1_0 <= 9
f5: x_1 - x_2 + 10 y_1_2 <= 9
f6: x_1 - x_9 + 10 y_1_9 <= 9
f7: x_2 - x_0 + 10 y_2_0 <= 9
f8: x_2 - x_1 + 10 y_2_1 <= 9
f9: x_3 - x_0 + 10 y_3_0 <= 9
f10: x_3 - x_5 + 10 y_3_5 <= 9
f11: x_3 - x_7 + 10 y_3_7 <= 9
f12: x_3 - x_8 + 10 y_3_8 <= 9
f13: x_4 - x_5 + 10 y_4_5 <= 9
f14: x_4 - x_6 + 10 y_4_6 <= 9
f15: x_4 - x_9 + 10 y_4_9 <= 9
f16: x_5 - x_0 + 10 y_5_0 <= 9
f17: x_5 - x_3 + 10 y_5_3 <= 9
f18: x_5 - x_4 + 10 y_5_4 <= 9
f19: x_5 - x_6 + 10 y_5_6 <= 9
f20: x_5 - x_7 + 10 y_5_7 <= 9
f21: x_6 - x_4 + 10 y_6_4 <= 9
f22: x_6 - x_5 + 10 y_6_5 <= 9
f23: x_6 - x_7 + 10 y_6_7 <= 9
f24: x_7 - x_3 + 10 y_7_3 <= 9
f25: x_7 - x_5 + 10 y_7_5 <= 9
f26: x_7 - x_6 + 10 y_7_6 <= 9
f27: x_7 - x_8 + 10 y_7_8 <= 9
f28: x_8 - x_3 + 10 y_8_3 <= 9
f29: x_8 - x_7 + 10 y_8_7 <= 9
f30: x_9 - x_1 + 10 y_9_1 <= 9
f31: x_9 - x_4 + 10 y_9_4 <= 9
g0: x_0 = 0



Bounds

x_0 <= 3
x_1 <= 3
x_2 <= 3
x_3 <= 3
x_4 <= 3
x_5 <= 3
x_6 <= 3
x_7 <= 3
x_8 <= 3
x_9 <= 3



Binary

y_0_1 y_0_2 y_0_3 y_0_5 y_1_0 y_1_2 y_1_9 y_2_0 y_2_1 y_3_0 y_3_5 y_3_7 y_3_8 y_4_5 y_4_6 y_4_9 y_5_0 y_5_3 y_5_4 y_5_6 y_5_7 y_6_4 y_6_5 y_6_7 y_7_3 y_7_5 y_7_6 y_7_8 y_8_3 y_8_7 y_9_1 y_9_4


General

 x_0 x_1 x_2 x_3 x_4 x_5 x_6 x_7 x_8 x_9

End
